NAME :  IRP
COMMENT : 
TYPE :  CVRP
DIMENSION : 	12
EDGE_WEIGHT_TYPE : 	EUC_2D
CAPACITY : 	779
NODE_COORD_SECTION
1	180	493
2	303	117
3	74	54
4	50	162
5	403	439
6	384	410
7	60	281
8	150	360
9	245	326
10	145	381
11	100	55
12	33	291
DEMAND_SECTION
1	0
2	24
3	140
4	78
5	66
6	20
7	54
8	192
9	38
10	158
11	210
12	156
DEPOT_SECTION
	1
	-1
EOF
